Version identifier: 22.1.1.0 | 2022-11-28 | 9160aff4d
CPXPARAM_ClockType                               1
CPXPARAM_Read_DataCheck                          1
CPXPARAM_Threads                                 1
CPXPARAM_TimeLimit                               7200
CPXPARAM_MIP_Tolerances_AbsMIPGap                0
CPXPARAM_MIP_Tolerances_MIPGap                   0
CPXPARAM_MIP_Tolerances_Integrality              0
Tried aggregator 2 times.
MIP Presolve eliminated 17927 rows and 9 columns.
MIP Presolve modified 9618 coefficients.
Aggregator did 2000 substitutions.
Reduced MIP has 33064 rows, 14491 columns, and 108356 nonzeros.
Reduced MIP has 14491 binaries, 0 generals, 0 SOSs, and 0 indicators.
Presolve time = 0.21 sec. (130.25 ticks)
Found incumbent of value -62328.000000 after 0.48 sec. (273.11 ticks)
Probing time = 0.01 sec. (8.38 ticks)
Tried aggregator 1 time.
Detecting symmetries...
MIP Presolve eliminated 1000 rows and 1 columns.
Reduced MIP has 32064 rows, 14490 columns, and 103355 nonzeros.
Reduced MIP has 14490 binaries, 0 generals, 0 SOSs, and 0 indicators.
Presolve time = 0.19 sec. (106.79 ticks)
Probing time = 0.01 sec. (8.12 ticks)
Clique table members: 18871.
MIP emphasis: balance optimality and feasibility.
MIP search method: dynamic search.
Parallel mode: none, using 1 thread.
Root relaxation solution time = 53.89 sec. (22762.03 ticks)

        Nodes                                         Cuts/
   Node  Left     Objective  IInf  Best Integer    Best Bound    ItCnt     Gap

*     0+    0                       -62328.0000    32500.0000           152.14%
      0     0     8000.0000  2503   -62328.0000     8000.0000    38433  112.84%
      0     0     8000.0000  2993   -62328.0000     Cuts: 101   103859  112.84%
      0     0     8000.0000  3093   -62328.0000     Cuts: 115   172049  112.84%
Heuristic still looking.
Heuristic still looking.
*     0+    0                         6972.0000     8000.0000            14.74%
*     0+    0                         6982.0000     8000.0000            14.58%
      0     0        cutoff           6982.0000     8000.0000   172049   14.58%
Detecting symmetries...
      0     2     8000.0000  2310     6982.0000     8000.0000   172049   14.58%
Elapsed time = 841.24 sec. (391908.27 ticks, tree = 0.01 MB, solutions = 3)
      1     3     8000.0000  3353     6982.0000     8000.0000   311940   14.58%
      2     4     8000.0000  3060     6982.0000     8000.0000   373887   14.58%
      3     5     8000.0000  3177     6982.0000     8000.0000   433611   14.58%
      5     7     8000.0000  3209     6982.0000     8000.0000   514127   14.58%
      6     8     8000.0000  3192     6982.0000     8000.0000   589540   14.58%
      7     9     8000.0000  3161     6982.0000     8000.0000   590452   14.58%
      8    10     8000.0000  3168     6982.0000     8000.0000   591307   14.58%
      9    11     8000.0000  3177     6982.0000     8000.0000   594512   14.58%
     10    12     8000.0000  3148     6982.0000     8000.0000   596286   14.58%
     11    13     8000.0000  3106     6982.0000     8000.0000   600678   14.58%
Elapsed time = 1857.01 sec. (847213.50 ticks, tree = 0.09 MB, solutions = 3)
     12    14     8000.0000  3086     6982.0000     8000.0000   602998   14.58%
     13    15     8000.0000  3100     6982.0000     8000.0000   604973   14.58%
     14    16     8000.0000  3088     6982.0000     8000.0000   607672   14.58%
     15    17     8000.0000  3104     6982.0000     8000.0000   608791   14.58%
     17    19     8000.0000  3097     6982.0000     8000.0000   610980   14.58%
     19    21     8000.0000  3071     6982.0000     8000.0000   613949   14.58%
     20    22     8000.0000  2958     6982.0000     8000.0000   672231   14.58%
     21    23     8000.0000  2869     6982.0000     8000.0000   675214   14.58%
     22    24     8000.0000  2792     6982.0000     8000.0000   677363   14.58%
     24    26     8000.0000  2768     6982.0000     8000.0000   681356   14.58%
Elapsed time = 2059.19 sec. (934695.51 ticks, tree = 0.19 MB, solutions = 3)
     25    27     8000.0000  2747     6982.0000     8000.0000   683805   14.58%
     27    29     8000.0000  2625     6982.0000     8000.0000   688470   14.58%
     28    30     8000.0000  2555     6982.0000     8000.0000   690878   14.58%
     30    32     8000.0000  2517     6982.0000     8000.0000   696400   14.58%
     32    34     7999.3333  2493     6982.0000     8000.0000   700533   14.58%
     35    37     8000.0000  2511     6982.0000     8000.0000   702953   14.58%
     38    40     8000.0000  2399     6982.0000     8000.0000   708414   14.58%
     41    43     8000.0000  2360     6982.0000     8000.0000   712728   14.58%
     48    50     8000.0000  2323     6982.0000     8000.0000   716833   14.58%
     50    52     8000.0000  2311     6982.0000     8000.0000   719238   14.58%
Elapsed time = 2097.30 sec. (949543.12 ticks, tree = 0.40 MB, solutions = 3)
     52    54     7998.6667  2253     6982.0000     8000.0000   722513   14.58%
     54    56     7992.0000  2104     6982.0000     8000.0000   736521   14.58%
     55    57     7990.6667  2120     6982.0000     8000.0000   738806   14.58%
     56    58     7992.0000  2079     6982.0000     8000.0000   748358   14.58%
     58    60     7992.0000  2065     6982.0000     8000.0000   750612   14.58%
     61    63     7992.0000  2054     6982.0000     8000.0000   752218   14.58%
     64    66     7992.0000  2039     6982.0000     8000.0000   757882   14.58%
     65    67     7992.0000  2030     6982.0000     8000.0000   766812   14.58%
     67    69     7992.0000  1991     6982.0000     8000.0000   767501   14.58%
     70    72     7992.0000  2001     6982.0000     8000.0000   768599   14.58%
Elapsed time = 2255.39 sec. (1023013.47 ticks, tree = 1.11 MB, solutions = 3)
     74    76     7992.0000  1987     6982.0000     8000.0000   770257   14.58%
     78    80     7992.0000  1979     6982.0000     8000.0000   771733   14.58%
     80    82     7992.0000  1967     6982.0000     8000.0000   772663   14.58%
     81    83     7992.0000  1964     6982.0000     8000.0000   773684   14.58%
     83    85     7992.0000  1970     6982.0000     8000.0000   777221   14.58%
     88    90     7992.0000  1944     6982.0000     8000.0000   778937   14.58%
     91    93     7992.0000  1959     6982.0000     8000.0000   780502   14.58%
     95    97     7992.0000  1882     6982.0000     8000.0000   782240   14.58%
     98   100     7992.0000  1880     6982.0000     8000.0000   784427   14.58%
    101   103     7992.0000  1828     6982.0000     8000.0000   786027   14.58%
Elapsed time = 2585.11 sec. (1174649.71 ticks, tree = 1.55 MB, solutions = 3)
    104   106     7992.0000  1792     6982.0000     8000.0000   787996   14.58%
    106   108     7992.0000  1833     6982.0000     8000.0000   794649   14.58%
    108   110     7992.0000  1843     6982.0000     8000.0000   796357   14.58%
    110   112     7992.0000  1782     6982.0000     8000.0000   797313   14.58%
    116   118     7992.0000  1795     6982.0000     8000.0000   799288   14.58%
    117   119     7992.0000  1800     6982.0000     8000.0000   800831   14.58%
    120   122     7992.0000  1764     6982.0000     8000.0000   801661   14.58%
    123   125     7992.0000  1765     6982.0000     8000.0000   803262   14.58%
    126   128     7992.0000  1806     6982.0000     8000.0000   804951   14.58%
    130   132     7992.0000  1775     6982.0000     8000.0000   807019   14.58%
Elapsed time = 2714.91 sec. (1238137.47 ticks, tree = 1.82 MB, solutions = 3)
    135   137     7992.0000  1772     6982.0000     8000.0000   809396   14.58%
    141   143     7992.0000  1763     6982.0000     8000.0000   811546   14.58%
    146   148     7992.0000  1778     6982.0000     8000.0000   814029   14.58%
    148   150     7992.0000  1713     6982.0000     8000.0000   824546   14.58%
    149   151     7992.0000  1724     6982.0000     8000.0000   830918   14.58%
    150   152     7992.0000  1705     6982.0000     8000.0000   836829   14.58%
    154   156     7992.0000  1750     6982.0000     8000.0000   838590   14.58%
    158   160     7992.0000  1700     6982.0000     8000.0000   840448   14.58%
    161   163     7992.0000  1736     6982.0000     8000.0000   842659   14.58%
    166   168     7992.0000  1679     6982.0000     8000.0000   844342   14.58%
Elapsed time = 2781.76 sec. (1267318.24 ticks, tree = 2.51 MB, solutions = 3)
    169   171     7992.0000  1651     6982.0000     8000.0000   849851   14.58%
    173   175     7992.0000  1665     6982.0000     8000.0000   851580   14.58%
    176   178     7992.0000  1664     6982.0000     8000.0000   853273   14.58%
    181   183     7992.0000  1652     6982.0000     8000.0000   854018   14.58%
    182   184     7992.0000  1635     6982.0000     8000.0000   858252   14.58%
    183   185     7992.0000  1652     6982.0000     8000.0000   868561   14.58%
    184   186     7992.0000  1642     6982.0000     8000.0000   870477   14.58%
    190   192     7992.0000  1648     6982.0000     8000.0000   872466   14.58%
    193   195     7992.0000  1640     6982.0000     8000.0000   874569   14.58%
    200   202     7992.0000  1631     6982.0000     8000.0000   876214   14.58%
Elapsed time = 2826.95 sec. (1288272.22 ticks, tree = 3.36 MB, solutions = 3)
    206   208     7992.0000  1625     6982.0000     8000.0000   878490   14.58%
    207   209     7992.0000  1603     6982.0000     8000.0000   892625   14.58%
    209   211     7992.0000  1701     6982.0000     8000.0000   893094   14.58%
    213   215     7992.0000  1700     6982.0000     8000.0000   894178   14.58%
    219   221     7992.0000  1585     6982.0000     8000.0000   903525   14.58%
    220   222     7992.0000  1602     6982.0000     8000.0000   904416   14.58%
    222   224     7992.0000  1587     6982.0000     8000.0000   904940   14.58%
    228   230     7992.0000  1618     6982.0000     8000.0000   906800   14.58%
    231   233     7992.0000  1571     6982.0000     8000.0000   908646   14.58%
    235   237     7992.0000  1662     6982.0000     8000.0000   909968   14.58%
Elapsed time = 2909.69 sec. (1322333.15 ticks, tree = 8.67 MB, solutions = 3)
    239   241     7992.0000  1564     6982.0000     8000.0000   910552   14.58%
    241   243     7992.0000  1563     6982.0000     8000.0000   911980   14.58%
    245   247     7992.0000  1601     6982.0000     8000.0000   913314   14.58%
    248   250     7992.0000  1564     6982.0000     8000.0000   914326   14.58%
    252   254     7992.0000  1569     6982.0000     8000.0000   915537   14.58%
    255   257     7992.0000  1521     6982.0000     8000.0000   923136   14.58%
    260   262     7992.0000  1525     6982.0000     8000.0000   923543   14.58%
    263   265     7992.0000  1534     6982.0000     8000.0000   928631   14.58%
    267   269     7992.0000  1537     6982.0000     8000.0000   930004   14.58%
    288   290     7992.0000  1480     6982.0000     8000.0000   934095   14.58%
Elapsed time = 2972.50 sec. (1347870.26 ticks, tree = 18.43 MB, solutions = 3)
    295   297     7992.0000  1423     6982.0000     8000.0000   939752   14.58%
    297   299     7992.0000  1423     6982.0000     8000.0000   943942   14.58%
    305   307     7992.0000  1460     6982.0000     8000.0000   948911   14.58%
    306   308     7992.0000  1397     6982.0000     8000.0000   956638   14.58%
    307   309     7992.0000  1395     6982.0000     8000.0000   961637   14.58%
    315   317     7992.0000  1401     6982.0000     8000.0000   967603   14.58%
    316   318     7992.0000  1375     6982.0000     8000.0000   972535   14.58%
    322   324     7992.0000  1358     6982.0000     8000.0000   977614   14.58%
    323   325     7992.0000  1358     6982.0000     8000.0000   982179   14.58%
    324   326     7992.0000  1460     6982.0000     8000.0000   999906   14.58%
Elapsed time = 3110.93 sec. (1408365.51 ticks, tree = 25.00 MB, solutions = 3)
    327   329     7992.0000  1386     6982.0000     8000.0000  1015832   14.58%
    334   336     7992.0000  1373     6982.0000     8000.0000  1023505   14.58%
    336   338     7992.0000  1419     6982.0000     8000.0000  1039769   14.58%
    338   340     7992.0000  1374     6982.0000     8000.0000  1052275   14.58%
    339   341     7992.0000  1377     6982.0000     8000.0000  1074792   14.58%
    340   342     7992.0000  1343     6982.0000     8000.0000  1087500   14.58%
    342   344     7992.0000  1240     6982.0000     8000.0000  1117386   14.58%
    346   348     7992.0000  1451     6982.0000     8000.0000  1150136   14.58%
    350   352     7992.0000  1262     6982.0000     8000.0000  1163964   14.58%
    351   353     7992.0000  1177     6982.0000     8000.0000  1183689   14.58%
Elapsed time = 3374.57 sec. (1530052.82 ticks, tree = 26.32 MB, solutions = 3)
    355   357     7992.0000  1152     6982.0000     8000.0000  1196291   14.58%
    357   359     7992.0000  1415     6982.0000     8000.0000  1214992   14.58%
    358   360     7992.0000  1174     6982.0000     8000.0000  1233935   14.58%
    360   362     7992.0000  1175     6982.0000     8000.0000  1245712   14.58%
    363   365     7992.0000  1094     6982.0000     8000.0000  1258976   14.58%
    364   366     7992.0000  1444     6982.0000     8000.0000  1276778   14.58%
    365   367     7992.0000  1390     6982.0000     8000.0000  1322623   14.58%
    367   369     7992.0000  1351     6982.0000     8000.0000  1331710   14.58%
    372   374     7992.0000  1289     6982.0000     8000.0000  1347591   14.58%
    376   378     7991.9752  1728     6982.0000     8000.0000  1371809   14.58%
Elapsed time = 3559.34 sec. (1619315.61 ticks, tree = 26.56 MB, solutions = 3)
    379   381     7992.0000   973     6982.0000     8000.0000  1380044   14.58%
    380   382     7992.0000   899     6982.0000     8000.0000  1395021   14.58%
    384   386     7991.9912  1658     6982.0000     8000.0000  1409561   14.58%
    388   390     7991.9820  1648     6982.0000     8000.0000  1425960   14.58%
    389   391     7991.9557  1737     6982.0000     8000.0000  1453215   14.58%
    393   395     7991.9752  1648     6982.0000     8000.0000  1458343   14.58%
    397   399     7991.9644  1670     6982.0000     8000.0000  1469293   14.58%
    398   400     7991.9562  1684     6982.0000     8000.0000  1473001   14.58%
*   400+  400                         7740.0000     8000.0000             3.36%
    400   402     7991.8841  1632     7740.0000     8000.0000  1479482    3.36%
    402   404     7991.8771  1714     7740.0000     8000.0000  1487995    3.36%
Elapsed time = 3735.29 sec. (1708971.20 ticks, tree = 29.29 MB, solutions = 4)
    406   408     7991.8615  1665     7740.0000     8000.0000  1496824    3.36%
    409   411     7991.7070  1648     7740.0000     8000.0000  1504271    3.36%
    413   415     7990.0000  1490     7740.0000     8000.0000  1511199    3.36%
    416   418     7989.3333  1589     7740.0000     8000.0000  1520540    3.36%
    418   420     7983.8182  1834     7740.0000     8000.0000  1536323    3.36%
    420   422     7983.8140  1654     7740.0000     8000.0000  1544982    3.36%
    422   424     7988.1333  1458     7740.0000     8000.0000  1548813    3.36%
    424   426     7987.2500  1505     7740.0000     8000.0000  1552394    3.36%
    427   429     7980.7381  1691     7740.0000     8000.0000  1560240    3.36%
    432   434     7980.5333  1585     7740.0000     8000.0000  1571896    3.36%
Elapsed time = 3853.50 sec. (1770545.84 ticks, tree = 30.83 MB, solutions = 4)
    437   437    infeasible           7740.0000     8000.0000  1575098    3.36%
    438   438     7984.9804  1456     7740.0000     8000.0000  1582130    3.36%
    439   439     7984.1337  1939     7740.0000     8000.0000  1596774    3.36%
    444   444     7983.8333  1490     7740.0000     8000.0000  1601887    3.36%
    447   447     7983.9362  1583     7740.0000     8000.0000  1606088    3.36%
    450   450     7978.4982  1531     7740.0000     8000.0000  1611385    3.36%
    451   451     7978.9333  1431     7740.0000     8000.0000  1614971    3.36%
    454   454     7972.6013  1665     7740.0000     8000.0000  1632277    3.36%
    461   461     7975.8788  1512     7740.0000     8000.0000  1641670    3.36%
    462   462     7975.8788  1524     7740.0000     8000.0000  1648987    3.36%
Elapsed time = 3989.48 sec. (1840535.39 ticks, tree = 33.59 MB, solutions = 4)
    471   471     7969.9404  1558     7740.0000     8000.0000  1660911    3.36%
    473   473     7973.8667  1439     7740.0000     8000.0000  1668853    3.36%
    476   476     7965.1134  1461     7740.0000     8000.0000  1701429    3.36%
    479   479     7965.1333  1446     7740.0000     8000.0000  1706525    3.36%
    484   484     7971.6000  1421     7740.0000     8000.0000  1708276    3.36%
    488   488     7969.9909  1394     7740.0000     8000.0000  1715024    3.36%
    490   490     7969.9744  1364     7740.0000     8000.0000  1718837    3.36%
    493   493     7968.5278  1349     7740.0000     8000.0000  1723473    3.36%
    497   497     7968.4762  1368     7740.0000     8000.0000  1729695    3.36%
    500   500     7968.4290  1356     7740.0000     8000.0000  1733183    3.36%
Elapsed time = 4107.23 sec. (1899548.38 ticks, tree = 37.51 MB, solutions = 4)
    503   503     7967.9583  1457     7740.0000     8000.0000  1737116    3.36%
    506   506     7961.6190  1479     7740.0000     8000.0000  1757980    3.36%
*   510+  508                         7824.0000     8000.0000             2.25%
    510   510     7966.5312  1466     7824.0000     8000.0000  1761354    2.25%
*   511+  509                         7840.0000     8000.0000             2.04%
    511   511     8000.0000  2973     7840.0000     8000.0000  1815062    2.04%
*   512+  510                         7842.0000     8000.0000             2.01%
    512   512     8000.0000  3025     7842.0000     8000.0000  1872532    2.01%
*   514+  512                         7846.0000     8000.0000             1.96%
    514   514     8000.0000  2400     7846.0000     8000.0000  1873816    1.96%
    516   516     8000.0000  2308     7846.0000     8000.0000  1879673    1.96%
    523   523     8000.0000  2236     7846.0000     8000.0000  1888008    1.96%
    530   530     8000.0000  2183     7846.0000     8000.0000  1893609    1.96%
    533   533     8000.0000  2050     7846.0000     8000.0000  1900493    1.96%
Elapsed time = 5618.12 sec. (2911870.69 ticks, tree = 39.25 MB, solutions = 8)
    547   547     7998.0000  1978     7846.0000     8000.0000  1906368    1.96%
    550   550     7998.0000  1969     7846.0000     8000.0000  1907665    1.96%
    556   556     7998.0000  1836     7846.0000     8000.0000  1914559    1.96%
    566   566     7998.0000  1841     7846.0000     8000.0000  1921014    1.96%
    580   580     7998.0000  1767     7846.0000     8000.0000  1927762    1.96%
    592   592     7998.0000  1758     7846.0000     8000.0000  1934219    1.96%
    606   606     7998.0000  1773     7846.0000     8000.0000  1941775    1.96%

Performing restart 1

Repeating presolve.
Tried aggregator 1 time.
MIP Presolve eliminated 0 rows and 1 columns.
Reduced MIP has 32064 rows, 14489 columns, and 103354 nonzeros.
Reduced MIP has 14489 binaries, 0 generals, 0 SOSs, and 0 indicators.
Presolve time = 0.09 sec. (59.32 ticks)
Tried aggregator 1 time.
Reduced MIP has 32064 rows, 14489 columns, and 103354 nonzeros.
Reduced MIP has 14489 binaries, 0 generals, 0 SOSs, and 0 indicators.
Presolve time = 0.11 sec. (76.42 ticks)
Represolve time = 0.55 sec. (274.25 ticks)
    624     0     8000.0000  2988     7846.0000     Cuts: 133  2153315    1.96%
    624     0     8000.0000  2921     7846.0000      Cuts: 38  2217735    1.96%
    624     0     8000.0000  3007     7846.0000      Cuts: 47  2283058    1.96%
    624     0     8000.0000  3035     7846.0000      Cuts: 83  2347458    1.96%

Clique cuts applied:  5
Implied bound cuts applied:  5
Zero-half cuts applied:  195
Gomory fractional cuts applied:  1

Root node processing (before b&c):
  Real time             =  841.21 sec. (391896.17 ticks)
Sequential b&c:
  Real time             = 6358.81 sec. (3370534.07 ticks)
                          ------------
Total (root+branch&cut) = 7200.02 sec. (3762430.24 ticks)
Solution is feasible.

---------------------
@@@ MIP_time_limit_feasible
>>> Benchmark sw100-15.cnf k 10 OPT 7846 TimeCost 7241.122900009155 TimeSolve 7227.619101285934 TimeRead 0.006830692291259766 TimeTrans 13.496968030929565
